set I := 0 1 2 3 4 5 6 7 8 9 10 11 12 13 14 15 16 17 18 19 20 21 22 23 24 25 26 27 28 29 30 31 32 33 34;

param cap := 150;

param: size:=
    0 100
    1 98
    2 96
    3 94
    4 91
    5 88
    6 85
    7 83
    8 81
    9 79
    10 78
    11 74
    12 72
    13 70
    14 67
    15 65
    16 62
    17 60
    18 58
    19 55
    20 53
    21 49
    22 47
    23 45
    24 43
    25 42
    26 39
    27 37
    28 35
    29 33
    30 31
    31 29
    32 27
    33 25
    34 23;
